data/rand/rand_050.gr
p tdp 15 58
1 2
1 3
1 5
1 6
1 9
1 11
1 12
1 14
2 3
2 5
2 7
2 8
2 10
2 11
3 4
3 5
3 6
3 7
3 8
3 9
3 12
3 13
3 14
4 6
4 7
4 8
4 9
4 10
4 12
4 13
4 14
4 15
5 7
5 8
5 10
5 11
5 14
6 7
6 8
6 10
6 12
6 13
6 14
7 11
7 14
8 10
8 13
8 14
8 15
9 10
9 12
9 14
10 12
10 15
11 13
11 14
11 15
13 15
