solutions/best/rand/rand_050.sol
11
0
1
2
3
11
12
4
7
12
8
13
13
14
10
11
